max_width = 15;
n_blocks = 25;
width = [3, 3, 7, 6, 2, 3, 3, 6, 3, 7, 2, 2, 1, 2, 1, 3, 3, 2, 2, 1, 1, 2, 1, 2, 1];
height = [16, 16, 12, 12, 12, 10, 10, 9, 9, 7, 7, 7, 7, 6, 6, 5, 5, 5, 5, 5, 5, 4, 4, 3, 3];
